/*********************************************
 * OPL 12.6.0.0 Data
 * Author: Adrian Rodriguez Bazaga, Pau Rodriguez Esmerats
 * Creation Date: 06/12/2017 at 23:04:58
 *********************************************/

nNurses=244;
maxConsec=2;
maxPresence=7;
maxHours=5;
minHours=1;
hours=24;
demand= [46 38 60 60 38 60 60 42 34 18 1 8 5 10 8 6 7 6 7 2 32 58 29 56  ];
